40
1 0 57
2 0 62
2 1 54
3 0 65
3 1 42
3 2 11
4 0 79
4 1 15
4 2 78
4 3 52
5 0 72
5 1 11
5 2 66
5 3 74
5 4 50
6 0 26
6 1 59
6 2 80
6 3 19
6 4 1
6 5 46
7 0 11
7 1 15
7 2 47
7 3 42
7 4 30
7 5 68
7 6 30
8 0 5
8 1 51
8 2 72
8 3 41
8 4 75
8 5 25
8 6 22
8 7 2
9 0 43
9 1 43
9 2 56
9 3 40
9 4 38
9 5 63
9 6 12
9 7 73
9 8 4
10 0 23
10 1 60
10 2 41
10 3 5
10 4 41
10 5 80
10 6 72
10 7 12
10 8 61
10 9 18
11 0 40
11 1 38
11 2 41
11 3 58
11 4 33
11 5 57
11 6 3
11 7 6
11 8 79
11 9 25
11 10 47
12 0 23
12 1 57
12 2 57
12 3 8
12 4 14
12 5 36
12 6 80
12 7 6
12 8 71
12 9 71
12 10 7
12 11 25
13 0 29
13 1 64
13 2 28
13 3 37
13 4 36
13 5 43
13 6 40
13 7 63
13 8 64
13 9 57
13 10 2
13 11 25
13 12 52
14 0 18
14 1 25
14 2 39
14 3 29
14 4 76
14 5 52
14 6 2
14 7 12
14 8 44
14 9 29
14 10 26
14 11 27
14 12 52
14 13 73
15 0 76
15 1 30
15 2 2
15 3 74
15 4 68
15 5 1
15 6 48
15 7 6
15 8 27
15 9 50
15 10 41
15 11 47
15 12 6
15 13 54
15 14 29
16 0 55
16 1 45
16 2 46
16 3 48
16 4 21
16 5 64
16 6 43
16 7 41
16 8 51
16 9 19
16 10 14
16 11 31
16 12 3
16 13 7
16 14 80
16 15 53
17 0 31
17 1 52
17 2 80
17 3 23
17 4 23
17 5 22
17 6 71
17 7 48
17 8 46
17 9 80
17 10 69
17 11 21
17 12 42
17 13 10
17 14 75
17 15 22
17 16 63
18 0 4
18 1 1
18 2 80
18 3 46
18 4 38
18 5 31
18 6 64
18 7 55
18 8 37
18 9 39
18 10 46
18 11 34
18 12 4
18 13 60
18 14 29
18 15 26
18 16 48
18 17 11
19 0 2
19 1 40
19 2 64
19 3 51
19 4 15
19 5 69
19 6 12
19 7 62
19 8 36
19 9 43
19 10 30
19 11 73
19 12 21
19 13 25
19 14 79
19 15 75
19 16 1
19 17 66
19 18 7
20 0 55
20 1 26
20 2 72
20 3 75
20 4 70
20 5 34
20 6 18
20 7 6
20 8 68
20 9 34
20 10 25
20 11 72
20 12 7
20 13 30
20 14 31
20 15 78
20 16 29
20 17 68
20 18 46
20 19 56
21 0 6
21 1 30
21 2 63
21 3 55
21 4 1
21 5 52
21 6 70
21 7 32
21 8 57
21 9 57
21 10 6
21 11 57
21 12 3
21 13 31
21 14 76
21 15 29
21 16 60
21 17 50
21 18 6
21 19 50
21 20 11
22 0 49
22 1 36
22 2 49
22 3 79
22 4 55
22 5 13
22 6 2
22 7 35
22 8 46
22 9 72
22 10 14
22 11 46
22 12 35
22 13 29
22 14 58
22 15 60
22 16 45
22 17 46
22 18 44
22 19 77
22 20 5
22 21 58
23 0 28
23 1 67
23 2 41
23 3 78
23 4 17
23 5 1
23 6 48
23 7 37
23 8 11
23 9 78
23 10 25
23 11 24
23 12 22
23 13 55
23 14 76
23 15 33
23 16 23
23 17 38
23 18 23
23 19 34
23 20 11
23 21 1
23 22 36
24 0 10
24 1 28
24 2 44
24 3 35
24 4 73
24 5 25
24 6 41
24 7 31
24 8 36
24 9 23
24 10 12
24 11 69
24 12 42
24 13 18
24 14 78
24 15 75
24 16 50
24 17 41
24 18 8
24 19 66
24 20 65
24 21 19
24 22 56
24 23 10
25 0 71
25 1 49
25 2 16
25 3 15
25 4 9
25 5 48
25 6 79
25 7 10
25 8 53
25 9 3
25 10 55
25 11 28
25 12 58
25 13 49
25 14 21
25 15 55
25 16 9
25 17 42
25 18 48
25 19 45
25 20 34
25 21 62
25 22 22
25 23 65
25 24 36
26 0 34
26 1 45
26 2 70
26 3 13
26 4 8
26 5 5
26 6 50
26 7 42
26 8 61
26 9 32
26 10 19
26 11 12
26 12 33
26 13 73
26 14 37
26 15 11
26 16 23
26 17 17
26 18 37
26 19 5
26 20 67
26 21 10
26 22 9
26 23 52
26 24 15
26 25 27
27 0 19
27 1 57
27 2 23
27 3 63
27 4 30
27 5 31
27 6 62
27 7 50
27 8 73
27 9 59
27 10 9
27 11 21
27 12 55
27 13 22
27 14 66
27 15 62
27 16 41
27 17 69
27 18 53
27 19 66
27 20 9
27 21 21
27 22 2
27 23 67
27 24 34
27 25 7
27 26 16
28 0 72
28 1 27
28 2 1
28 3 76
28 4 68
28 5 23
28 6 40
28 7 52
28 8 38
28 9 12
28 10 29
28 11 9
28 12 54
28 13 50
28 14 80
28 15 46
28 16 12
28 17 63
28 18 2
28 19 51
28 20 70
28 21 51
28 22 53
28 23 9
28 24 30
28 25 66
28 26 12
28 27 1
29 0 67
29 1 61
29 2 2
29 3 15
29 4 17
29 5 80
29 6 2
29 7 31
29 8 78
29 9 30
29 10 75
29 11 46
29 12 30
29 13 38
29 14 52
29 15 80
29 16 10
29 17 20
29 18 30
29 19 19
29 20 69
29 21 3
29 22 43
29 23 11
29 24 80
29 25 13
29 26 73
29 27 46
29 28 56
30 0 69
30 1 20
30 2 18
30 3 78
30 4 25
30 5 2
30 6 76
30 7 31
30 8 4
30 9 27
30 10 35
30 11 57
30 12 67
30 13 7
30 14 7
30 15 36
30 16 68
30 17 68
30 18 38
30 19 23
30 20 4
30 21 17
30 22 60
30 23 52
30 24 49
30 25 24
30 26 68
30 27 10
30 28 1
30 29 67
31 0 27
31 1 26
31 2 28
31 3 19
31 4 25
31 5 31
31 6 49
31 7 7
31 8 55
31 9 32
31 10 17
31 11 23
31 12 61
31 13 17
31 14 80
31 15 66
31 16 67
31 17 43
31 18 34
31 19 57
31 20 30
31 21 28
31 22 56
31 23 53
31 24 2
31 25 71
31 26 10
31 27 39
31 28 18
31 29 61
31 30 68
32 0 37
32 1 46
32 2 6
32 3 60
32 4 75
32 5 77
32 6 41
32 7 23
32 8 77
32 9 9
32 10 58
32 11 29
32 12 67
32 13 16
32 14 48
32 15 57
32 16 63
32 17 47
32 18 15
32 19 25
32 20 8
32 21 67
32 22 19
32 23 51
32 24 43
32 25 49
32 26 74
32 27 4
32 28 67
32 29 4
32 30 74
32 31 40
33 0 38
33 1 57
33 2 1
33 3 20
33 4 17
33 5 27
33 6 78
33 7 40
33 8 5
33 9 64
33 10 23
33 11 75
33 12 39
33 13 12
33 14 78
33 15 53
33 16 16
33 17 46
33 18 51
33 19 7
33 20 68
33 21 51
33 22 41
33 23 46
33 24 26
33 25 18
33 26 77
33 27 13
33 28 46
33 29 73
33 30 77
33 31 29
33 32 12
34 0 71
34 1 21
34 2 9
34 3 71
34 4 34
34 5 41
34 6 25
34 7 29
34 8 49
34 9 27
34 10 27
34 11 11
34 12 76
34 13 16
34 14 64
34 15 69
34 16 75
34 17 55
34 18 8
34 19 58
34 20 50
34 21 24
34 22 66
34 23 78
34 24 80
34 25 4
34 26 69
34 27 22
34 28 44
34 29 43
34 30 65
34 31 22
34 32 27
34 33 2
35 0 13
35 1 50
35 2 42
35 3 69
35 4 11
35 5 26
35 6 8
35 7 32
35 8 30
35 9 5
35 10 27
35 11 76
35 12 61
35 13 1
35 14 6
35 15 50
35 16 78
35 17 25
35 18 9
35 19 14
35 20 56
35 21 72
35 22 80
35 23 72
35 24 53
35 25 67
35 26 21
35 27 40
35 28 49
35 29 1
35 30 61
35 31 31
35 32 11
35 33 70
35 34 47
36 0 54
36 1 8
36 2 60
36 3 76
36 4 10
36 5 49
36 6 59
36 7 64
36 8 37
36 9 23
36 10 21
36 11 11
36 12 8
36 13 75
36 14 71
36 15 23
36 16 8
36 17 1
36 18 67
36 19 48
36 20 67
36 21 45
36 22 28
36 23 29
36 24 62
36 25 23
36 26 70
36 27 66
36 28 22
36 29 11
36 30 61
36 31 53
36 32 36
36 33 38
36 34 62
36 35 26
37 0 20
37 1 65
37 2 64
37 3 3
37 4 48
37 5 45
37 6 36
37 7 28
37 8 4
37 9 21
37 10 30
37 11 52
37 12 25
37 13 28
37 14 60
37 15 71
37 16 56
37 17 36
37 18 78
37 19 41
37 20 25
37 21 47
37 22 44
37 23 36
37 24 31
37 25 78
37 26 76
37 27 20
37 28 30
37 29 5
37 30 56
37 31 25
37 32 36
37 33 27
37 34 77
37 35 25
37 36 49
38 0 58
38 1 48
38 2 38
38 3 49
38 4 56
38 5 16
38 6 29
38 7 16
38 8 47
38 9 61
38 10 3
38 11 62
38 12 39
38 13 72
38 14 16
38 15 76
38 16 68
38 17 69
38 18 24
38 19 3
38 20 50
38 21 51
38 22 65
38 23 23
38 24 53
38 25 74
38 26 25
38 27 24
38 28 43
38 29 70
38 30 73
38 31 12
38 32 14
38 33 65
38 34 15
38 35 1
38 36 65
38 37 21
39 0 57
39 1 23
39 2 21
39 3 1
39 4 63
39 5 50
39 6 47
39 7 19
39 8 8
39 9 28
39 10 32
39 11 53
39 12 14
39 13 7
39 14 50
39 15 31
39 16 3
39 17 46
39 18 30
39 19 67
39 20 37
39 21 10
39 22 16
39 23 5
39 24 40
39 25 10
39 26 3
39 27 14
39 28 39
39 29 40
39 30 35
39 31 62
39 32 37
39 33 3
39 34 75
39 35 51
39 36 62
39 37 6
39 38 59
